(set-logic QF_BV)
(declare-fun CLK_1 () (_ BitVec 1))
(declare-fun CLK_2 () (_ BitVec 1))
(declare-fun CLK_3 () (_ BitVec 1))
(declare-fun EOC_1 () (_ BitVec 1))
(declare-fun EOC_2 () (_ BitVec 1))
(declare-fun RESET_1 () (_ BitVec 1))
(declare-fun RESET_2 () (_ BitVec 1))
(declare-fun RESET_3 () (_ BitVec 1))
(declare-fun SOC_1 () (_ BitVec 1))
(declare-fun SOC_0 () (_ BitVec 1))
(declare-fun STATE_2 () (_ BitVec 4))
(declare-fun TIME_TCK_2 () (_ BitVec 1))
(define-fun $e1 () (_ BitVec 4) (_ bv0 4))
(define-fun $e2 () (_ BitVec 4) (_ bv14 4))
(define-fun $e3 () (_ BitVec 4) (_ bv2 4))
(define-fun $e4 () (_ BitVec 4) (_ bv12 4))
(define-fun $e5 () (_ BitVec 1) (ite (= CLK_1 CLK_2) #b1 #b0))
(define-fun $e6 () (_ BitVec 1) (ite (= RESET_1 RESET_2) #b1 #b0))
(define-fun $e7 () (_ BitVec 1) (bvand $e5 $e6))
(define-fun $e8 () (_ BitVec 1) (bvand CLK_1 (bvnot $e5)))
(define-fun $e9 () (_ BitVec 1) (ite (= CLK_2 CLK_3) #b1 #b0))
(define-fun $e10 () (_ BitVec 1) (ite (= RESET_2 RESET_3) #b1 #b0))
(define-fun $e11 () (_ BitVec 1) (bvand $e9 $e10))
(define-fun $e12 () (_ BitVec 1) (bvand CLK_2 (bvnot $e9)))
(define-fun $e13 () (_ BitVec 1) (ite (= STATE_2 $e1) #b1 #b0))
(define-fun $e14 () (_ BitVec 1) (bvand (bvnot TIME_TCK_2) $e13))
(define-fun $e15 () (_ BitVec 1) (ite (= STATE_2 (bvnot $e2)) #b1 #b0))
(define-fun $e16 () (_ BitVec 1) (ite (= STATE_2 $e3) #b1 #b0))
(define-fun $e17 () (_ BitVec 1) (ite (= STATE_2 (bvnot $e4)) #b1 #b0))
(define-fun $e18 () (_ BitVec 1) (bvand (bvnot $e13) (bvnot $e17)))
(define-fun $e19 () (_ BitVec 1) (bvand (bvnot $e16) (bvnot $e18)))
(define-fun $e20 () (_ BitVec 1) (bvand (bvnot $e15) $e19))
(define-fun $e21 () (_ BitVec 1) (bvand TIME_TCK_2 $e13))
(define-fun $e22 () (_ BitVec 1) (bvand (bvnot $e13) (bvnot $e20)))
(define-fun $e23 () (_ BitVec 1) (bvand (bvnot $e21) (bvnot $e22)))
(define-fun $e24 () (_ BitVec 1) (bvand $e12 (bvnot $e23)))
(define-fun $e25 () (_ BitVec 1) (bvand (bvnot $e12) (bvnot $e13)))
(define-fun $e26 () (_ BitVec 1) (bvand (bvnot $e24) (bvnot $e25)))
(define-fun $e27 () (_ BitVec 1) (bvand (bvnot RESET_2) (bvnot $e26)))
(define-fun $e28 () (_ BitVec 1) (bvand $e11 (bvnot $e13)))
(define-fun $e29 () (_ BitVec 1) (bvand (bvnot $e11) $e27))
(define-fun $e30 () (_ BitVec 1) (bvand (bvnot $e28) (bvnot $e29)))
(define-fun $e31 () (_ BitVec 1) (ite (= SOC_1 SOC_0) #b1 #b0))
(define-fun $e32 () (_ BitVec 1) (bvand (bvnot EOC_2) $e15))
(define-fun $e33 () (_ BitVec 1) (bvand (bvnot $e13) (bvnot $e32)))
(define-fun $e34 () (_ BitVec 1) (bvand (bvnot $e14) (bvnot $e33)))
(define-fun $e35 () (_ BitVec 1) (bvand $e12 (bvnot $e34)))
(define-fun $e36 () (_ BitVec 1) (bvand (bvnot $e12) (bvnot $e15)))
(define-fun $e37 () (_ BitVec 1) (bvand (bvnot $e35) (bvnot $e36)))
(define-fun $e38 () (_ BitVec 1) (bvand (bvnot RESET_2) $e37))
(define-fun $e39 () (_ BitVec 1) (bvand $e11 (bvnot $e15)))
(define-fun $e40 () (_ BitVec 1) (bvand (bvnot $e11) (bvnot $e38)))
(define-fun $e41 () (_ BitVec 1) (bvand (bvnot $e39) (bvnot $e40)))
(define-fun $e42 () (_ BitVec 1) (bvand EOC_1 SOC_0))
(define-fun $e43 () (_ BitVec 1) (bvand (bvnot EOC_1) (bvnot $e31)))
(define-fun $e44 () (_ BitVec 1) (bvand (bvnot $e42) (bvnot $e43)))
(define-fun $e45 () (_ BitVec 1) (bvand EOC_2 $e15))
(define-fun $e46 () (_ BitVec 1) (bvand (bvnot $e13) $e45))
(define-fun $e47 () (_ BitVec 1) (bvand $e12 (bvnot $e46)))
(define-fun $e48 () (_ BitVec 1) (bvand (bvnot $e12) (bvnot $e16)))
(define-fun $e49 () (_ BitVec 1) (bvand (bvnot $e47) (bvnot $e48)))
(define-fun $e50 () (_ BitVec 1) (bvand (bvnot RESET_2) $e49))
(define-fun $e51 () (_ BitVec 1) (bvand $e11 (bvnot $e16)))
(define-fun $e52 () (_ BitVec 1) (bvand (bvnot $e11) (bvnot $e50)))
(define-fun $e53 () (_ BitVec 1) (bvand (bvnot $e51) (bvnot $e52)))
(define-fun $e54 () (_ BitVec 1) (bvand $e12 (bvnot $e16)))
(define-fun $e55 () (_ BitVec 1) (bvand (bvnot $e12) (bvnot $e17)))
(define-fun $e56 () (_ BitVec 1) (bvand (bvnot $e54) (bvnot $e55)))
(define-fun $e57 () (_ BitVec 1) (bvand (bvnot RESET_2) $e56))
(define-fun $e58 () (_ BitVec 1) (bvand $e11 (bvnot $e17)))
(define-fun $e59 () (_ BitVec 1) (bvand (bvnot $e11) (bvnot $e57)))
(define-fun $e60 () (_ BitVec 1) (bvand (bvnot $e58) (bvnot $e59)))
(define-fun $e61 () (_ BitVec 1) (bvand (bvnot SOC_0) $e60))
(define-fun $e62 () (_ BitVec 1) (bvand (bvnot $e31) (bvnot $e60)))
(define-fun $e63 () (_ BitVec 1) (bvand (bvnot $e61) (bvnot $e62)))
(define-fun $e64 () (_ BitVec 1) (bvand (bvnot $e31) $e53))
(define-fun $e65 () (_ BitVec 1) (bvand (bvnot $e53) (bvnot $e63)))
(define-fun $e66 () (_ BitVec 1) (bvand (bvnot $e64) (bvnot $e65)))
(define-fun $e67 () (_ BitVec 1) (bvand $e41 (bvnot $e44)))
(define-fun $e68 () (_ BitVec 1) (bvand (bvnot $e41) (bvnot $e66)))
(define-fun $e69 () (_ BitVec 1) (bvand (bvnot $e67) (bvnot $e68)))
(define-fun $e70 () (_ BitVec 1) (bvand $e30 (bvnot $e31)))
(define-fun $e71 () (_ BitVec 1) (bvand (bvnot $e30) (bvnot $e69)))
(define-fun $e72 () (_ BitVec 1) (bvand (bvnot $e70) (bvnot $e71)))
(define-fun $e73 () (_ BitVec 1) (bvand $e8 (bvnot $e72)))
(define-fun $e74 () (_ BitVec 1) (bvand (bvnot $e8) (bvnot $e31)))
(define-fun $e75 () (_ BitVec 1) (bvand (bvnot $e73) (bvnot $e74)))
(define-fun $e76 () (_ BitVec 1) (bvand RESET_1 (bvnot SOC_0)))
(define-fun $e77 () (_ BitVec 1) (bvand (bvnot RESET_1) (bvnot $e75)))
(define-fun $e78 () (_ BitVec 1) (bvand (bvnot $e76) (bvnot $e77)))
(define-fun $e79 () (_ BitVec 1) (bvand $e7 (bvnot $e31)))
(define-fun $e80 () (_ BitVec 1) (bvand (bvnot $e7) (bvnot $e78)))
(assert (not (= (bvnot $e79) #b0)))
(assert (not (= (bvnot $e80) #b0)))
(check-sat)
(exit)
